(set-logic QF_LRA)
(declare-fun X0 () Real )
(declare-fun Y0 () Real )
(declare-fun X1 () Real )
(declare-fun Y1 () Real )
(declare-fun X2 () Real )
(declare-fun Y2 () Real )
(declare-fun X3 () Real )
(declare-fun Y3 () Real )
(declare-fun X4 () Real )
(declare-fun Y4 () Real )
(declare-fun X5 () Real )
(declare-fun Y5 () Real )
(declare-fun Z () Real )
(declare-fun k () Real )
(assert (let
(( $goal (>= Z k) ))
(let
((
$phi ( and 
( or ( <= ( + X0 32 ) X1 )  ( <= ( + X1 31 ) X0 )  ( <= ( + Y0 27 ) Y1 )  ( <= ( + Y1 78 ) Y0 )  )
( or ( <= ( + X0 32 ) X2 )  ( <= ( + X2 96 ) X0 )  ( <= ( + Y0 27 ) Y2 )  ( <= ( + Y2 68 ) Y0 )  )
( or ( <= ( + X0 32 ) X3 )  ( <= ( + X3 5 ) X0 )  ( <= ( + Y0 27 ) Y3 )  ( <= ( + Y3 4 ) Y0 )  )
( or ( <= ( + X0 32 ) X4 )  ( <= ( + X4 36 ) X0 )  ( <= ( + Y0 27 ) Y4 )  ( <= ( + Y4 66 ) Y0 )  )
( or ( <= ( + X0 32 ) X5 )  ( <= ( + X5 30 ) X0 )  ( <= ( + Y0 27 ) Y5 )  ( <= ( + Y5 52 ) Y0 )  )
( or ( <= ( + X1 31 ) X2 )  ( <= ( + X2 96 ) X1 )  ( <= ( + Y1 78 ) Y2 )  ( <= ( + Y2 68 ) Y1 )  )
( or ( <= ( + X1 31 ) X3 )  ( <= ( + X3 5 ) X1 )  ( <= ( + Y1 78 ) Y3 )  ( <= ( + Y3 4 ) Y1 )  )
( or ( <= ( + X1 31 ) X4 )  ( <= ( + X4 36 ) X1 )  ( <= ( + Y1 78 ) Y4 )  ( <= ( + Y4 66 ) Y1 )  )
( or ( <= ( + X1 31 ) X5 )  ( <= ( + X5 30 ) X1 )  ( <= ( + Y1 78 ) Y5 )  ( <= ( + Y5 52 ) Y1 )  )
( or ( <= ( + X2 96 ) X3 )  ( <= ( + X3 5 ) X2 )  ( <= ( + Y2 68 ) Y3 )  ( <= ( + Y3 4 ) Y2 )  )
( or ( <= ( + X2 96 ) X4 )  ( <= ( + X4 36 ) X2 )  ( <= ( + Y2 68 ) Y4 )  ( <= ( + Y4 66 ) Y2 )  )
( or ( <= ( + X2 96 ) X5 )  ( <= ( + X5 30 ) X2 )  ( <= ( + Y2 68 ) Y5 )  ( <= ( + Y5 52 ) Y2 )  )
( or ( <= ( + X3 5 ) X4 )  ( <= ( + X4 36 ) X3 )  ( <= ( + Y3 4 ) Y4 )  ( <= ( + Y4 66 ) Y3 )  )
( or ( <= ( + X3 5 ) X5 )  ( <= ( + X5 30 ) X3 )  ( <= ( + Y3 4 ) Y5 )  ( <= ( + Y5 52 ) Y3 )  )
( or ( <= ( + X4 36 ) X5 )  ( <= ( + X5 30 ) X4 )  ( <= ( + Y4 66 ) Y5 )  ( <= ( + Y5 52 ) Y4 )  )
( >= X0 0)
( <= ( + X0 32) Z)
( >= Y0 0)
( <= ( + Y0 27 ) 122)
( >= X1 0)
( <= ( + X1 31) Z)
( >= Y1 0)
( <= ( + Y1 78 ) 122)
( >= X2 0)
( <= ( + X2 96) Z)
( >= Y2 0)
( <= ( + Y2 68 ) 122)
( >= X3 0)
( <= ( + X3 5) Z)
( >= Y3 0)
( <= ( + Y3 4 ) 122)
( >= X4 0)
( <= ( + X4 36) Z)
( >= Y4 0)
( <= ( + Y4 66 ) 122)
( >= X5 0)
( <= ( + X5 30) Z)
( >= Y5 0)
( <= ( + Y5 52 ) 122)
) )
)(=> $phi $goal))))